NAME          ClpDefau
ROWS
 N  OBJROW
 L  R_240_0
 L  R_240_1
 L  R_240_2
 L  R_240_3
 L  R_240_4
 L  R_240_5
 L  R_240_6
 L  R_240_7
 L  R_240_8
 L  R_240_9
 L  R_240_10
 L  R_240_11
 L  R_240_12
 L  R_240_13
 L  R_240_14
 L  R_240_15
COLUMNS
    x_0       OBJROW     -8.           R_240_0   9.          
    x_0       R_240_1   3.             R_240_2   1.          
    x_0       R_240_3   3.             R_240_4   9.          
    x_0       R_240_5   9.             R_240_6   3.          
    x_0       R_240_8   7.             R_240_9   6.          
    x_0       R_240_10  6.             R_240_11  8.          
    x_0       R_240_12  7.             R_240_13  8.          
    x_0       R_240_14  4.             R_240_15  8.          
    x_1       OBJROW     -12.          R_240_0   6.          
    x_1       R_240_1   8.             R_240_3   10.         
    x_1       R_240_4   9.             R_240_5   8.          
    x_1       R_240_6   6.             R_240_10  8.          
    x_1       R_240_11  9.             R_240_12  9.          
    x_1       R_240_13  10.            R_240_14  4.          
    x_1       R_240_15  6.          
    x_2       OBJROW     -11.          R_240_1   2.          
    x_2       R_240_2   6.             R_240_3   4.          
    x_2       R_240_5   10.            R_240_6   5.          
    x_2       R_240_7   2.             R_240_8   3.          
    x_2       R_240_10  4.             R_240_12  1.          
    x_2       R_240_13  6.             R_240_14  1.          
    x_2       R_240_15  2.          
    x_3       OBJROW     -47.          R_240_0   1.          
    x_3       R_240_1   3.             R_240_3   3.          
    x_3       R_240_4   1.             R_240_5   1.          
    x_3       R_240_6   4.             R_240_7   1.          
    x_3       R_240_8   10.            R_240_9   2.          
    x_3       R_240_10  8.             R_240_11  8.          
    x_3       R_240_12  10.            R_240_13  5.          
    x_3       R_240_14  10.            R_240_15  8.          
    x_4       OBJROW     -22.          R_240_1   6.          
    x_4       R_240_3   3.             R_240_4   7.          
    x_4       R_240_5   6.             R_240_6   6.          
    x_4       R_240_7   10.            R_240_9   9.          
    x_4       R_240_11  5.             R_240_12  3.          
    x_4       R_240_13  8.             R_240_14  9.          
    x_5       OBJROW     -95.          R_240_0   1.          
    x_5       R_240_2   8.             R_240_3   2.          
    x_5       R_240_4   10.            R_240_5   10.         
    x_5       R_240_6   5.             R_240_7   5.          
    x_5       R_240_8   1.             R_240_9   7.          
    x_5       R_240_10  2.             R_240_11  2.          
    x_5       R_240_12  2.             R_240_13  4.          
    x_5       R_240_14  1.             R_240_15  8.          
    x_6       OBJROW     -86.          R_240_0   9.          
    x_6       R_240_1   4.             R_240_2   4.          
    x_6       R_240_3   7.             R_240_4   1.          
    x_6       R_240_5   1.             R_240_8   2.          
    x_6       R_240_9   8.             R_240_10  9.          
    x_6       R_240_12  6.             R_240_13  6.          
    x_6       R_240_14  7.             R_240_15  5.          
    x_7       OBJROW     -40.          R_240_0   1.          
    x_7       R_240_2   8.             R_240_3   10.         
    x_7       R_240_4   1.             R_240_5   6.          
    x_7       R_240_6   2.             R_240_7   8.          
    x_7       R_240_8   10.            R_240_9   8.          
    x_7       R_240_10  6.             R_240_11  2.          
    x_7       R_240_12  2.             R_240_13  6.          
    x_7       R_240_14  4.             R_240_15  1.          
    x_8       OBJROW     -33.          R_240_0   8.          
    x_8       R_240_1   8.             R_240_2   8.          
    x_8       R_240_3   6.             R_240_4   9.          
    x_8       R_240_6   7.             R_240_9   4.          
    x_8       R_240_10  10.            R_240_11  7.          
    x_8       R_240_12  2.             R_240_13  10.         
    x_8       R_240_14  6.             R_240_15  9.          
    x_9       OBJROW     -78.          R_240_0   7.          
    x_9       R_240_2   1.             R_240_3   5.          
    x_9       R_240_4   6.             R_240_5   9.          
    x_9       R_240_6   3.             R_240_7   7.          
    x_9       R_240_8   9.             R_240_9   9.          
    x_9       R_240_10  3.             R_240_11  4.          
    x_9       R_240_12  6.             R_240_13  10.         
    x_9       R_240_14  8.             R_240_15  1.          
    x_10      OBJROW     -28.          R_240_1   3.          
    x_10      R_240_2   1.             R_240_3   7.          
    x_10      R_240_4   7.             R_240_5   8.          
    x_10      R_240_6   9.             R_240_7   2.          
    x_10      R_240_8   4.             R_240_9   4.          
    x_10      R_240_10  7.             R_240_12  1.          
    x_10      R_240_13  9.             R_240_14  8.          
    x_10      R_240_15  2.          
    x_11      OBJROW     -78.          R_240_0   4.          
    x_11      R_240_1   10.            R_240_2   4.          
    x_11      R_240_4   9.             R_240_5   4.          
    x_11      R_240_6   10.            R_240_7   8.          
    x_11      R_240_9   10.            R_240_10  8.          
    x_11      R_240_11  10.            R_240_12  4.          
    x_11      R_240_14  6.             R_240_15  8.          
    x_12      OBJROW     -5.           R_240_0   2.          
    x_12      R_240_1   8.             R_240_4   9.          
    x_12      R_240_5   2.             R_240_6   6.          
    x_12      R_240_7   7.             R_240_8   3.          
    x_12      R_240_9   8.             R_240_10  8.          
    x_12      R_240_11  3.             R_240_12  9.          
    x_12      R_240_13  1.             R_240_14  9.          
    x_13      OBJROW     -75.          R_240_0   4.          
    x_13      R_240_2   3.             R_240_3   9.          
    x_13      R_240_4   5.             R_240_5   6.          
    x_13      R_240_6   5.             R_240_7   7.          
    x_13      R_240_8   2.             R_240_9   4.          
    x_13      R_240_10  9.             R_240_12  9.          
    x_13      R_240_13  5.             R_240_14  8.          
    x_13      R_240_15  9.          
    x_14      OBJROW     -88.          R_240_0   2.          
    x_14      R_240_1   7.             R_240_3   6.          
    x_14      R_240_4   8.             R_240_5   8.          
    x_14      R_240_6   5.             R_240_7   3.          
    x_14      R_240_9   4.             R_240_11  2.          
    x_14      R_240_13  6.             R_240_14  3.          
    x_14      R_240_15  4.          
    x_15      OBJROW     -21.          R_240_0   9.          
    x_15      R_240_1   7.             R_240_3   5.          
    x_15      R_240_6   6.             R_240_7   5.          
    x_15      R_240_8   2.             R_240_9   7.          
    x_15      R_240_10  5.             R_240_12  8.          
    x_15      R_240_13  3.             R_240_14  7.          
    x_15      R_240_15  1.          
    x_16      OBJROW     -56.          R_240_0   3.          
    x_16      R_240_1   7.             R_240_2   6.          
    x_16      R_240_3   10.            R_240_4   5.          
    x_16      R_240_5   3.             R_240_6   4.          
    x_16      R_240_8   3.             R_240_9   6.          
    x_16      R_240_10  7.             R_240_11  2.          
    x_16      R_240_12  4.             R_240_13  10.         
    x_16      R_240_14  6.             R_240_15  10.         
    x_17      OBJROW     -82.          R_240_0   3.          
    x_17      R_240_1   2.             R_240_2   5.          
    x_17      R_240_3   9.             R_240_4   2.          
    x_17      R_240_5   10.            R_240_7   1.          
    x_17      R_240_8   8.             R_240_9   6.          
    x_17      R_240_10  10.            R_240_11  10.         
    x_17      R_240_12  8.             R_240_15  7.          
    x_18      OBJROW     -51.          R_240_0   8.          
    x_18      R_240_1   2.             R_240_2   10.         
    x_18      R_240_3   9.             R_240_5   5.          
    x_18      R_240_6   1.             R_240_7   6.          
    x_18      R_240_8   1.             R_240_9   2.          
    x_18      R_240_10  8.             R_240_11  8.          
    x_18      R_240_12  8.             R_240_13  1.          
    x_18      R_240_14  9.             R_240_15  1.          
    x_19      OBJROW     -93.          R_240_0   1.          
    x_19      R_240_2   9.             R_240_4   8.          
    x_19      R_240_5   9.             R_240_6   2.          
    x_19      R_240_7   1.             R_240_8   7.          
    x_19      R_240_9   7.             R_240_11  9.          
    x_19      R_240_12  3.             R_240_13  3.          
    x_19      R_240_14  4.             R_240_15  4.          
    x_20      OBJROW     -66.          R_240_0   7.          
    x_20      R_240_1   3.             R_240_2   5.          
    x_20      R_240_4   8.             R_240_5   9.          
    x_20      R_240_6   5.             R_240_7   3.          
    x_20      R_240_8   2.             R_240_9   9.          
    x_20      R_240_10  4.             R_240_11  10.         
    x_20      R_240_12  3.             R_240_13  5.          
    x_20      R_240_14  8.             R_240_15  4.          
    x_21      OBJROW     -48.          R_240_1   1.          
    x_21      R_240_2   2.             R_240_3   9.          
    x_21      R_240_5   2.             R_240_8   5.          
    x_21      R_240_10  6.             R_240_11  5.          
    x_21      R_240_13  2.             R_240_14  7.          
    x_21      R_240_15  1.          
    x_22      OBJROW     -70.          R_240_0   2.          
    x_22      R_240_1   5.             R_240_3   7.          
    x_22      R_240_4   9.             R_240_5   10.         
    x_22      R_240_6   4.             R_240_7   3.          
    x_22      R_240_8   8.             R_240_11  10.         
    x_22      R_240_12  4.             R_240_13  8.          
    x_22      R_240_14  8.          
    x_23      OBJROW     -57.          R_240_0   2.          
    x_23      R_240_1   10.            R_240_2   8.          
    x_23      R_240_3   10.            R_240_4   10.         
    x_23      R_240_6   5.             R_240_8   5.          
    x_23      R_240_9   1.             R_240_10  6.          
    x_23      R_240_11  9.             R_240_12  6.          
    x_23      R_240_14  8.          
    x_24      OBJROW     -65.          R_240_0   10.         
    x_24      R_240_1   4.             R_240_2   10.         
    x_24      R_240_3   2.             R_240_4   8.          
    x_24      R_240_6   8.             R_240_7   4.          
    x_24      R_240_8   5.             R_240_11  10.         
    x_24      R_240_12  6.             R_240_13  7.          
    x_24      R_240_14  4.             R_240_15  9.          
    x_25      OBJROW     -35.          R_240_0   4.          
    x_25      R_240_1   10.            R_240_2   7.          
    x_25      R_240_3   8.             R_240_4   8.          
    x_25      R_240_6   4.             R_240_7   9.          
    x_25      R_240_8   2.             R_240_9   9.          
    x_25      R_240_10  1.             R_240_11  7.          
    x_25      R_240_12  9.             R_240_13  6.          
    x_25      R_240_14  9.          
    x_26      OBJROW     -5.           R_240_0   2.          
    x_26      R_240_1   4.             R_240_2   1.          
    x_26      R_240_3   3.             R_240_4   4.          
    x_26      R_240_5   9.             R_240_6   3.          
    x_26      R_240_7   2.             R_240_8   9.          
    x_26      R_240_9   3.             R_240_10  3.          
    x_26      R_240_11  9.             R_240_12  8.          
    x_26      R_240_13  9.             R_240_14  6.          
    x_26      R_240_15  2.          
    x_27      OBJROW     -4.           R_240_0   2.          
    x_27      R_240_1   6.             R_240_2   5.          
    x_27      R_240_5   3.             R_240_6   6.          
    x_27      R_240_7   1.             R_240_8   9.          
    x_27      R_240_9   2.             R_240_10  9.          
    x_27      R_240_11  7.             R_240_12  4.          
    x_27      R_240_13  3.             R_240_14  1.          
    x_27      R_240_15  6.          
    x_28      OBJROW     -47.          R_240_0   5.          
    x_28      R_240_1   1.             R_240_3   4.          
    x_28      R_240_4   6.             R_240_5   10.         
    x_28      R_240_7   9.             R_240_8   1.          
    x_28      R_240_9   2.             R_240_10  5.          
    x_28      R_240_11  4.             R_240_12  9.          
    x_28      R_240_15  3.          
    x_29      OBJROW     -60.          R_240_0   3.          
    x_29      R_240_1   6.             R_240_2   10.         
    x_29      R_240_3   8.             R_240_5   8.          
    x_29      R_240_6   10.            R_240_9   5.          
    x_29      R_240_10  3.             R_240_11  10.         
    x_29      R_240_12  8.             R_240_13  4.          
    x_29      R_240_14  5.             R_240_15  6.          
    x_30      OBJROW     -41.          R_240_0   1.          
    x_30      R_240_2   1.             R_240_3   1.          
    x_30      R_240_5   10.            R_240_6   5.          
    x_30      R_240_7   8.             R_240_8   10.         
    x_30      R_240_9   4.             R_240_10  9.          
    x_30      R_240_11  5.             R_240_13  7.          
    x_30      R_240_14  4.             R_240_15  7.          
    x_31      OBJROW     -49.          R_240_0   10.         
    x_31      R_240_1   9.             R_240_2   7.          
    x_31      R_240_3   6.             R_240_5   3.          
    x_31      R_240_6   3.             R_240_7   8.          
    x_31      R_240_8   3.             R_240_9   6.          
    x_31      R_240_10  7.             R_240_11  5.          
    x_31      R_240_12  1.             R_240_13  1.          
    x_31      R_240_14  2.             R_240_15  6.          
RHS
    RHS       R_240_0   114.           R_240_1   113.        
    RHS       R_240_2   135.           R_240_3   77.         
    RHS       R_240_4   115.           R_240_5   52.         
    RHS       R_240_6   166.           R_240_7   154.        
    RHS       R_240_8   134.           R_240_9   92.         
    RHS       R_240_10  145.           R_240_11  56.         
    RHS       R_240_12  36.            R_240_13  120.        
    RHS       R_240_14  39.            R_240_15  109.        
BOUNDS
 UI BOUND     x_0       100.        
 UI BOUND     x_1       100.        
 UI BOUND     x_2       100.        
 UI BOUND     x_3       100.        
 UI BOUND     x_4       100.        
 UI BOUND     x_5       100.        
 UI BOUND     x_6       100.        
 UI BOUND     x_7       100.        
 UI BOUND     x_8       100.        
 UI BOUND     x_9       100.        
 UI BOUND     x_10      100.        
 UI BOUND     x_11      100.        
 UI BOUND     x_12      100.        
 UI BOUND     x_13      100.        
 UI BOUND     x_14      100.        
 UI BOUND     x_15      100.        
 UI BOUND     x_16      100.        
 UI BOUND     x_17      100.        
 UI BOUND     x_18      100.        
 UI BOUND     x_19      100.        
 UI BOUND     x_20      100.        
 UI BOUND     x_21      100.        
 UI BOUND     x_22      100.        
 UI BOUND     x_23      100.        
 UI BOUND     x_24      100.        
 UI BOUND     x_25      100.        
 UI BOUND     x_26      100.        
 UI BOUND     x_27      100.        
 UI BOUND     x_28      100.        
 UI BOUND     x_29      100.        
 UI BOUND     x_30      100.        
 UI BOUND     x_31      100.        
ENDATA
